(declare-const conc0 Real)
(assert (and (>= conc0 0) (<= conc0 100)))
(declare-const conc1 Real)
(assert (and (>= conc1 0) (<= conc1 100)))
(declare-const conc2 Real)
(assert (and (>= conc2 0) (<= conc2 100)))
(declare-const conc3 Real)
(assert (and (>= conc3 0) (<= conc3 100)))
(declare-const conc4 Real)
(assert (and (>= conc4 0) (<= conc4 100)))
(declare-const conc5 Real)
(assert (and (>= conc5 0) (<= conc5 100)))
(declare-const conc6 Real)
(assert (and (>= conc6 0) (<= conc6 100)))
(declare-const conc7 Real)
(assert (and (>= conc7 0) (<= conc7 100)))
(declare-const conc8 Real)
(assert (and (>= conc8 0) (<= conc8 100)))
(declare-const conc9 Real)
(assert (and (>= conc9 0) (<= conc9 100)))
(declare-const conc10 Real)
(assert (and (>= conc10 0) (<= conc10 100)))
(declare-const conc11 Real)
(assert (and (>= conc11 0) (<= conc11 100)))
(declare-const coef0 Real)
(assert (= coef0 (- (* 0.69301 conc1 conc0) (* 0.000118289 conc4))))
(declare-const coef5 Real)
(assert (= coef5 (- (* 0.122692 conc4 conc2) (* 0.163532 conc9))))
(declare-const coef6 Real)
(assert (= coef6 (- (* 0.402384 conc0 conc7) (* 0.00426223 conc9))))
(declare-const coef7 Real)
(assert (= coef7 (- (* 0.453033 conc3 conc2) (* 0.612535 conc10))))
(declare-const coef8 Real)
(assert (= coef8 (- (* 0.11726 conc4 conc4) (* 0.310118 conc10))))
(assert (> (+ (- coef0) (- coef6) 0) 0.0001))
(assert (> (+ (- coef5) (- coef7) 0) 0.0001))
(assert (> (+ coef0 (- coef5) (- coef8) (- coef8) 0) 0.0001))
(assert (> (+ coef5 coef6 0) 0.0001))
(assert (> (+ coef7 coef8 0) 0.0001))
(declare-const coef3 Real)
(assert (= coef3 (- (* 0.245819 conc0 conc4) (* 0.00696256 conc7))))
(assert (> (+ (- coef5) (- coef7) 0) 0.0001))
(assert (> (+ (- coef3) (- coef5) (- coef8) (- coef8) 0) 0.0001))
(assert (> (+ coef3 (- coef6) 0) 0.0001))
(assert (> (+ coef5 coef6 0) 0.0001))
(assert (> (+ coef7 coef8 0) 0.0001))
(check-sat)
(get-model)
